
******************************************************************************
This program contains Ipopt, a library for large-scale nonlinear optimization.
 Ipopt is released as open source code under the Eclipse Public License (EPL).
         For more information visit http://projects.coin-or.org/Ipopt
******************************************************************************

NOTE: You are using Ipopt by default with the MUMPS linear solver.
      Other linear solvers might be more efficient (see Ipopt documentation).


This is Ipopt version 3.11.0, running with linear solver mumps.

Number of nonzeros in equality constraint Jacobian...:        4
Number of nonzeros in inequality constraint Jacobian.:        4
Number of nonzeros in Lagrangian Hessian.............:       10

Total number of variables............................:        4
                     variables with only lower bounds:        0
                variables with lower and upper bounds:        4
                     variables with only upper bounds:        0
Total number of equality constraints.................:        1
Total number of inequality constraints...............:        1
        inequality constraints with only lower bounds:        1
   inequality constraints with lower and upper bounds:        0
        inequality constraints with only upper bounds:        0

iter    objective    inf_pr   inf_du lg(mu)  ||d||  lg(rg) alpha_du alpha_pr  ls
   0 1.6109693e+001 1.12e+001 5.28e-001  -1.0 0.00e+000    -  0.00e+000 0.00e+000   0
   1 1.6982239e+001 7.30e-001 1.02e+001  -1.0 6.11e-001    -  7.19e-002 1.00e+000f  1
   2 1.7318411e+001 3.60e-002 5.05e-001  -1.0 1.61e-001    -  1.00e+000 1.00e+000h  1
   3 1.6849424e+001 2.78e-001 6.68e-002  -1.7 2.85e-001    -  7.94e-001 1.00e+000h  1
   4 1.7051199e+001 4.71e-003 2.78e-003  -1.7 6.06e-002    -  1.00e+000 1.00e+000h  1
   5 1.7011979e+001 7.19e-003 8.50e-003  -3.8 3.66e-002    -  9.45e-001 9.98e-001h  1
   6 1.7014271e+001 1.74e-005 9.78e-006  -3.8 3.33e-003    -  1.00e+000 1.00e+000h  1
   7 1.7014021e+001 1.23e-007 1.82e-007  -5.7 2.69e-004    -  1.00e+000 1.00e+000h  1
   8 1.7014017e+001 1.76e-011 2.50e-011  -8.0 3.31e-006    -  1.00e+000 1.00e+000h  1

Number of Iterations....: 8

                                   (scaled)                 (unscaled)
Objective...............:  1.7014017158349414e+001   1.7014017158349414e+001
Dual infeasibility......:  2.4995616385647699e-011   2.4995616385647699e-011
Constraint violation....:  1.7600143564777682e-011   1.7600143564777682e-011
Complementarity.........:  9.1125685766682112e-009   9.1125685766682112e-009
Overall NLP error.......:  9.1125685766682112e-009   9.1125685766682112e-009


Number of objective function evaluations             = 9
Number of objective gradient evaluations             = 9
Number of equality constraint evaluations            = 9
Number of inequality constraint evaluations          = 9
Number of equality constraint Jacobian evaluations   = 9
Number of inequality constraint Jacobian evaluations = 9
Number of Lagrangian Hessian evaluations             = 8
Total CPU secs in IPOPT (w/o function evaluations)   =      0.130
Total CPU secs in NLP function evaluations           =      0.006

EXIT: Optimal Solution Found.
This is Ipopt version 3.11.0, running with linear solver mumps.

Number of nonzeros in equality constraint Jacobian...:        4
Number of nonzeros in inequality constraint Jacobian.:        4
Number of nonzeros in Lagrangian Hessian.............:       10

Total number of variables............................:        4
                     variables with only lower bounds:        0
                variables with lower and upper bounds:        4
                     variables with only upper bounds:        0
Total number of equality constraints.................:        1
Total number of inequality constraints...............:        1
        inequality constraints with only lower bounds:        1
   inequality constraints with lower and upper bounds:        0
        inequality constraints with only upper bounds:        0

iter    objective    inf_pr   inf_du lg(mu)  ||d||  lg(rg) alpha_du alpha_pr  ls
   0 1.6109693e+001 1.12e+001 5.28e-001  -1.0 0.00e+000    -  0.00e+000 0.00e+000   0
   1 1.6982239e+001 7.30e-001 1.02e+001  -1.0 6.11e-001    -  7.19e-002 1.00e+000f  1
   2 1.7318411e+001 3.60e-002 5.05e-001  -1.0 1.61e-001    -  1.00e+000 1.00e+000h  1
   3 1.6849424e+001 2.78e-001 6.68e-002  -1.7 2.85e-001    -  7.94e-001 1.00e+000h  1
   4 1.7051199e+001 4.71e-003 2.78e-003  -1.7 6.06e-002    -  1.00e+000 1.00e+000h  1
   5 1.7011979e+001 7.19e-003 8.50e-003  -3.8 3.66e-002    -  9.45e-001 9.98e-001h  1
   6 1.7014271e+001 1.74e-005 9.78e-006  -3.8 3.33e-003    -  1.00e+000 1.00e+000h  1
   7 1.7014021e+001 1.23e-007 1.82e-007  -5.7 2.69e-004    -  1.00e+000 1.00e+000h  1
   8 1.7014017e+001 1.76e-011 2.50e-011  -8.0 3.31e-006    -  1.00e+000 1.00e+000h  1

Number of Iterations....: 8

                                   (scaled)                 (unscaled)
Objective...............:  1.7014017158349414e+001   1.7014017158349414e+001
Dual infeasibility......:  2.4995616385647699e-011   2.4995616385647699e-011
Constraint violation....:  1.7600143564777682e-011   1.7600143564777682e-011
Complementarity.........:  9.1125685766682112e-009   9.1125685766682112e-009
Overall NLP error.......:  9.1125685766682112e-009   9.1125685766682112e-009


Number of objective function evaluations             = 9
Number of objective gradient evaluations             = 9
Number of equality constraint evaluations            = 9
Number of inequality constraint evaluations          = 9
Number of equality constraint Jacobian evaluations   = 9
Number of inequality constraint Jacobian evaluations = 9
Number of Lagrangian Hessian evaluations             = 8
Total CPU secs in IPOPT (w/o function evaluations)   =      0.039
Total CPU secs in NLP function evaluations           =      0.005

EXIT: Optimal Solution Found.
